
Gurobi 10.0.2 (linux64) logging started Thu Sep  7 10:02:55 2023

Set parameter LogFile to value "../surrogate_problem/log/surrogate2_46.log"
Set parameter Threads to value 30
Gurobi Optimizer version 10.0.2 build v10.0.2rc0 (linux64)

CPU model: Intel(R) Xeon(R) Platinum 8280 CPU @ 2.70GHz, instruction set [SSE2|AVX|AVX2|AVX512]
Thread count: 112 physical cores, 112 logical processors, using up to 30 threads

Optimize a model with 579 rows, 1948 columns and 237308 nonzeros
Model fingerprint: 0x662e154e
Variable types: 321 continuous, 1627 integer (1627 binary)
Coefficient statistics:
  Matrix range     [1e-07, 1e+05]
  Objective range  [2e-01, 2e+01]
  Bounds range     [1e+00, 1e+00]
  RHS range        [3e-02, 1e+05]
Found heuristic solution: objective 313744.68003
Presolve removed 238 rows and 238 columns
Presolve time: 0.19s
Presolved: 341 rows, 1710 columns, 114681 nonzeros
Variable types: 162 continuous, 1548 integer (1548 binary)

Root relaxation: objective 2.463022e+05, 192 iterations, 0.01 seconds (0.01 work units)

    Nodes    |    Current Node    |     Objective Bounds      |     Work
 Expl Unexpl |  Obj  Depth IntInf | Incumbent    BestBd   Gap | It/Node Time

     0     0 246302.236    0   14 313744.680 246302.236  21.5%     -    0s
H    0     0                    246302.37382 246302.236  0.00%     -    0s
     0     0 246302.236    0   14 246302.374 246302.236  0.00%     -    0s

Explored 1 nodes (192 simplex iterations) in 0.30 seconds (0.26 work units)
Thread count was 30 (of 112 available processors)

Solution count 2: 246302 313745 

Optimal solution found (tolerance 1.00e-04)
Best objective 2.463023738202e+05, best bound 2.463023738202e+05, gap 0.0000%

Gurobi 10.0.2 (linux64) logging started Fri Sep  8 15:26:39 2023

Set parameter LogFile to value "../surrogate_problem/log/surrogate2_46.log"
Gurobi Optimizer version 10.0.2 build v10.0.2rc0 (linux64)

CPU model: Intel(R) Xeon(R) Platinum 8280 CPU @ 2.70GHz, instruction set [SSE2|AVX|AVX2|AVX512]
Thread count: 112 physical cores, 112 logical processors, using up to 30 threads

Optimize a model with 579 rows, 1948 columns and 237308 nonzeros
Model fingerprint: 0x662e154e
Variable types: 321 continuous, 1627 integer (1627 binary)
Coefficient statistics:
  Matrix range     [1e-07, 1e+05]
  Objective range  [2e-01, 2e+01]
  Bounds range     [1e+00, 1e+00]
  RHS range        [3e-02, 1e+05]
Found heuristic solution: objective 313744.68003
Presolve removed 238 rows and 238 columns
Presolve time: 0.19s
Presolved: 341 rows, 1710 columns, 114681 nonzeros
Variable types: 162 continuous, 1548 integer (1548 binary)

Root relaxation: objective 2.463022e+05, 192 iterations, 0.01 seconds (0.01 work units)

    Nodes    |    Current Node    |     Objective Bounds      |     Work
 Expl Unexpl |  Obj  Depth IntInf | Incumbent    BestBd   Gap | It/Node Time

     0     0 246302.236    0   14 313744.680 246302.236  21.5%     -    0s
H    0     0                    246302.37382 246302.236  0.00%     -    0s
     0     0 246302.236    0   14 246302.374 246302.236  0.00%     -    0s

Explored 1 nodes (192 simplex iterations) in 0.32 seconds (0.26 work units)
Thread count was 30 (of 112 available processors)

Solution count 2: 246302 313745 

Optimal solution found (tolerance 1.00e-04)
Best objective 2.463023738202e+05, best bound 2.463023738202e+05, gap 0.0000%
